/*********************************************
 * OPL 12.6.0.0 Data
 * Author: Adrian Rodriguez Bazaga, Pau Rodriguez Esmerats
 * Creation Date: 30/11/2017 at 19:59:15
 *********************************************/

nNurses=1116;
maxConsec=2;
maxPresence=7;
maxHours=5;
minHours=1;
demand= [231 225 358 351 225 358 351 241 249 149 23 42 40 52 48 36 35 23 25 10 186 363 185 300  ];
